solution status: time limit reached
objective value:                          51302.58808
y#2                                                 1 	(obj:5700)
y#3                                                 1 	(obj:5700)
y#6                                                 1 	(obj:5700)
y#8                                                 1 	(obj:5700)
y#9                                                 1 	(obj:5700)
y#11                                                1 	(obj:5700)
y#12                                                1 	(obj:5700)
y#14                                                1 	(obj:5700)
y#16                                                1 	(obj:5700)
x#1#3                                               1 	(obj:0.04046)
x#2#3                                               1 	(obj:0.03961)
x#3#6                                               1 	(obj:0.01275)
x#4#2                                               1 	(obj:0.04743)
x#5#12                                              1 	(obj:0.01309)
x#6#14                                              1 	(obj:0.0374)
x#7#16                                              1 	(obj:0.02006)
x#8#8                                               1 	(obj:0.03077)
x#9#3                                               1 	(obj:0.0034)
x#10#14                                             1 	(obj:0.01326)
x#11#12                                             1 	(obj:0.02533)
x#12#14                                             1 	(obj:0.04182)
x#13#6                                              1 	(obj:0.0187)
x#14#12                                             1 	(obj:0.00697)
x#15#8                                              1 	(obj:0.01955)
x#16#12                                             1 	(obj:0.03757)
x#17#6                                              1 	(obj:0.03026)
x#18#8                                              1 	(obj:0.02414)
x#19#14                                             1 	(obj:0.02363)
x#20#8                                              1 	(obj:0.01734)
x#21#3                                              1 	(obj:0.03026)
x#22#3                                              1 	(obj:0.02278)
x#23#16                                             1 	(obj:0.02074)
x#24#3                                              1 	(obj:0.01802)
x#25#12                                             1 	(obj:0.0017)
x#26#12                                             1 	(obj:0.01649)
x#27#2                                              1 	(obj:0.00629)
x#28#12                                             1 	(obj:0.01428)
x#29#2                                              1 	(obj:0.04267)
x#30#11                                             1 	(obj:0.0391)
x#31#16                                             1 	(obj:0.03604)
x#32#11                                             1 	(obj:0.03519)
x#33#14                                             1 	(obj:0.01564)
x#34#11                                             1 	(obj:0.02958)
x#35#2                                              1 	(obj:0.03094)
x#36#16                                             1 	(obj:0.03638)
x#37#14                                             1 	(obj:0.03502)
x#38#6                                              1 	(obj:0.01666)
x#39#12                                             1 	(obj:0.01989)
x#40#6                                              1 	(obj:0.02822)
x#41#9                                              1 	(obj:0.01343)
x#42#3                                              1 	(obj:0.01683)
x#43#16                                             1 	(obj:0.02312)
x#44#14                                             1 	(obj:0.01343)
x#45#9                                              1 	(obj:0.0204)
x#46#8                                              1 	(obj:0.01139)
x#47#2                                              1 	(obj:0.0221)
x#48#8                                              1 	(obj:0.04369)
x#49#2                                              1 	(obj:0.03247)
x#50#9                                              1 	(obj:0.03111)
x#51#8                                              1 	(obj:0.02176)
x#52#14                                             1 	(obj:0.04148)
x#53#14                                             1 	(obj:0.03502)
x#54#11                                             1 	(obj:0.05032)
x#55#3                                              1 	(obj:0.02737)
x#56#9                                              1 	(obj:0.01921)
x#57#16                                             1 	(obj:0.01309)
x#58#11                                             1 	(obj:0.04012)
x#59#9                                              1 	(obj:0.00986)
x#60#12                                             1 	(obj:0.02125)
x#61#9                                              1 	(obj:0.05882)
x#62#9                                              1 	(obj:0.02227)
x#63#3                                              1 	(obj:0.017)
x#64#9                                              1 	(obj:0.03893)
x#65#8                                              1 	(obj:0.0272)
x#66#8                                              1 	(obj:0.01326)
x#67#9                                              1 	(obj:0.0136)
x#68#2                                              1 	(obj:0.04114)
x#69#9                                              1 	(obj:0.01071)
x#70#16                                             1 	(obj:0.03485)
x#71#2                                              1 	(obj:0.03485)
x#72#3                                              1 	(obj:0.04641)
x#73#16                                             1 	(obj:0.03604)
x#74#6                                              1 	(obj:0.0289)
x#75#16                                             1 	(obj:0.03349)
x#76#6                                              1 	(obj:0.03995)
x#77#11                                             1 	(obj:0.03026)
x#78#2                                              1 	(obj:0.02227)
x#79#3                                              1 	(obj:0.01326)
x#80#14                                             1 	(obj:0.01785)
x#81#14                                             1 	(obj:0.00629)
x#82#6                                              1 	(obj:0.01462)
x#83#2                                              1 	(obj:0.00442)
x#84#6                                              1 	(obj:0.01751)
x#85#11                                             1 	(obj:0.00918)
x#86#14                                             1 	(obj:0.01105)
x#87#12                                             1 	(obj:0.03264)
x#88#11                                             1 	(obj:0.03468)
x#89#11                                             1 	(obj:0.05287)
x#90#8                                              1 	(obj:0.03196)
x#91#16                                             1 	(obj:0.04573)
x#92#16                                             1 	(obj:0.03009)
x#93#11                                             1 	(obj:0.03553)
x#94#11                                             1 	(obj:0.04114)
x#95#11                                             1 	(obj:0.02618)
x#96#8                                              1 	(obj:0.02499)
x#97#3                                              1 	(obj:0.01768)
x#98#9                                              1 	(obj:0.03485)
x#99#2                                              1 	(obj:0.01071)
x#100#12                                            1 	(obj:0.01802)
